column=12;
row=12;
Board=[|2,0,7,0,0,3,9,0,12,0,0,0|0,0,0,0,0,0,0,1,0,11,0,8|4,0,8,0,1,0,6,12,2,0,0,0|0,0,0,0,6,5,0,0,0,0,0,3|0,8,2,3,0,1,0,5,0,7,10,0|11,0,0,0,3,0,0,0,0,0,0,0|0,12,10,0,0,6,0,2,0,1,0,0|0,5,6,0,7,2,0,0,0,9,0,12|8,3,0,0,0,0,0,4,0,0,0,0|3,0,0,12,9,8,4,0,7,10,0,0|9,1,0,0,0,0,8,7,0,12,5,0|0,0,0,2,12,0,1,0,0,0,0,0|];
horizontal=[|0,0,2,0,2,1,1,0,0,0,2|2,1,1,0,0,0,0,1,1,0,2|0,0,1,2,1,2,0,0,0,1,2|2,1,2,0,2,0,0,2,1,0,0|0,0,0,0,2,0,2,0,1,1,0|2,1,0,0,0,0,0,0,0,0,1|1,0,2,1,0,1,0,0,2,0,0|1,1,0,0,2,0,0,2,1,2,1|0,2,0,0,0,0,2,1,2,1,0|0,2,0,0,0,2,0,0,0,0,2|2,1,0,0,0,2,0,2,0,2,0|1,0,0,0,0,0,1,1,0,1,2|];
vertical=[|0,2,0,0,0,0,2,0,2,0,1,0|2,1,0,1,0,0,0,0,2,0,1,0|0,0,0,2,0,0,0,0,0,0,2,0|0,0,2,0,0,2,1,2,1,1,0,0|0,0,1,1,2,0,0,0,1,2,0,0|0,0,0,2,1,0,0,0,1,0,0,0|0,0,2,0,0,2,2,0,0,0,0,0|1,0,0,2,0,0,0,0,1,0,0,0|0,1,0,0,1,0,0,1,2,0,2,2|0,0,0,2,0,0,0,0,0,0,1,0|0,0,0,0,1,0,0,0,0,0,0,0|];
